expected_failures_A=130;
expected_failures_B=96;
expected_failures_C=88;
s=3;
hints=[|
0, 0, 0, 0, 0, 0, 0, 0, 0|
0, 6, 8, 4, 0, 1, 0, 7, 0|
0, 0, 0, 0, 8, 5, 0, 3, 0|
0, 2, 6, 8, 0, 9, 0, 4, 0|
0, 0, 7, 0, 0, 0, 9, 0, 0|
0, 5, 0, 1, 0, 6, 3, 2, 0|
0, 4, 0, 6, 1, 0, 0, 0, 0|
0, 3, 0, 2, 0, 7, 6, 9, 0|
0, 0, 0, 0, 0, 0, 0, 0, 0|
|];
